c parsing input formula with 20 variables and 45 clauses
c finished parsing
c detected empty clause; start verification via backward checking
c 45 of 45 clauses in core                            
c 72 of 83 lemmas in core using 237 resolution steps
c 12 RAT lemmas in core; 0 redundant literals in core lemmas
s VERIFIED
c verification time: 0.099 seconds
